c Sudoku solution
p cnf 729 0
151 0
166 0
197 0
247 0
279 0
283 0
312 0
337 0
398 0
418 0
423 0
439 0
553 0
568 0
591 0
615 0
717 0
788 0
678 0
693 0
825 0
841 0
461 0
945 0
455 0
148 0
969 0
974 0
992 0
129 0
819 0
799 0
775 0
981 0
873 0
887 0
896 0
957 0
858 0
211 0
667 0
527 0
371 0
172 0
576 0
585 0
477 0
494 0
482 0
689 0
446 0
514 0
532 0
549 0
113 0
916 0
928 0
933 0
722 0
731 0
834 0
862 0
621 0
636 0
238 0
135 0
184 0
642 0
654 0
756 0
359 0
252 0
386 0
295 0
264 0
343 0
365 0
226 0
324 0
744 0
763 0
